
Gurobi 10.0.3 (linux64, gurobi_cl) logging started Fri Feb 23 14:20:54 2024

Set parameter Username
Set parameter LogFile to value "gurobi.log"

Gurobi 10.0.3 (linux64, gurobi_cl) logging started Fri Feb 23 14:23:43 2024

Set parameter Username
Set parameter LogFile to value "gurobi.log"

Gurobi 10.0.3 (linux64, gurobi_cl) logging started Fri Feb 23 14:26:02 2024

Set parameter Username
Set parameter LogFile to value "gurobi.log"

Gurobi 10.0.3 (linux64, gurobi_cl) logging started Fri Feb 23 14:26:24 2024

Set parameter Username
Set parameter LogFile to value "gurobi.log"

Gurobi 10.0.3 (linux64, gurobi_cl) logging started Fri Feb 23 14:29:46 2024

Set parameter Username
Set parameter LogFile to value "gurobi.log"
